; QGCP model=0 n=5 opts={'-m': '0', '-x': ''}
; color-variable model (alldiff)
(declare-const c_0_0 Int)
(assert (and (>= c_0_0 0) (<= c_0_0 4)))
(declare-const c_0_1 Int)
(assert (and (>= c_0_1 0) (<= c_0_1 4)))
(declare-const c_0_2 Int)
(assert (and (>= c_0_2 0) (<= c_0_2 4)))
(declare-const c_0_3 Int)
(assert (and (>= c_0_3 0) (<= c_0_3 4)))
(declare-const c_0_4 Int)
(assert (and (>= c_0_4 0) (<= c_0_4 4)))
(declare-const c_1_0 Int)
(assert (and (>= c_1_0 0) (<= c_1_0 4)))
(declare-const c_1_1 Int)
(assert (and (>= c_1_1 0) (<= c_1_1 4)))
(declare-const c_1_2 Int)
(assert (and (>= c_1_2 0) (<= c_1_2 4)))
(declare-const c_1_3 Int)
(assert (and (>= c_1_3 0) (<= c_1_3 4)))
(declare-const c_1_4 Int)
(assert (and (>= c_1_4 0) (<= c_1_4 4)))
(declare-const c_2_0 Int)
(assert (and (>= c_2_0 0) (<= c_2_0 4)))
(declare-const c_2_1 Int)
(assert (and (>= c_2_1 0) (<= c_2_1 4)))
(declare-const c_2_2 Int)
(assert (and (>= c_2_2 0) (<= c_2_2 4)))
(declare-const c_2_3 Int)
(assert (and (>= c_2_3 0) (<= c_2_3 4)))
(declare-const c_2_4 Int)
(assert (and (>= c_2_4 0) (<= c_2_4 4)))
(declare-const c_3_0 Int)
(assert (and (>= c_3_0 0) (<= c_3_0 4)))
(declare-const c_3_1 Int)
(assert (and (>= c_3_1 0) (<= c_3_1 4)))
(declare-const c_3_2 Int)
(assert (and (>= c_3_2 0) (<= c_3_2 4)))
(declare-const c_3_3 Int)
(assert (and (>= c_3_3 0) (<= c_3_3 4)))
(declare-const c_3_4 Int)
(assert (and (>= c_3_4 0) (<= c_3_4 4)))
(declare-const c_4_0 Int)
(assert (and (>= c_4_0 0) (<= c_4_0 4)))
(declare-const c_4_1 Int)
(assert (and (>= c_4_1 0) (<= c_4_1 4)))
(declare-const c_4_2 Int)
(assert (and (>= c_4_2 0) (<= c_4_2 4)))
(declare-const c_4_3 Int)
(assert (and (>= c_4_3 0) (<= c_4_3 4)))
(declare-const c_4_4 Int)
(assert (and (>= c_4_4 0) (<= c_4_4 4)))
(assert (distinct c_0_0 c_0_1 c_0_2 c_0_3 c_0_4))
(assert (distinct c_1_0 c_1_1 c_1_2 c_1_3 c_1_4))
(assert (distinct c_2_0 c_2_1 c_2_2 c_2_3 c_2_4))
(assert (distinct c_3_0 c_3_1 c_3_2 c_3_3 c_3_4))
(assert (distinct c_4_0 c_4_1 c_4_2 c_4_3 c_4_4))
(assert (distinct c_0_0 c_1_0 c_2_0 c_3_0 c_4_0))
(assert (distinct c_0_1 c_1_1 c_2_1 c_3_1 c_4_1))
(assert (distinct c_0_2 c_1_2 c_2_2 c_3_2 c_4_2))
(assert (distinct c_0_3 c_1_3 c_2_3 c_3_3 c_4_3))
(assert (distinct c_0_4 c_1_4 c_2_4 c_3_4 c_4_4))
(assert (distinct c_0_1 c_1_0))
(assert (distinct c_0_2 c_1_1 c_2_0))
(assert (distinct c_0_3 c_1_2 c_2_1 c_3_0))
(assert (distinct c_0_4 c_1_3 c_2_2 c_3_1 c_4_0))
(assert (distinct c_1_4 c_2_3 c_3_2 c_4_1))
(assert (distinct c_2_4 c_3_3 c_4_2))
(assert (distinct c_3_4 c_4_3))
(assert (distinct c_0_3 c_1_4))
(assert (distinct c_0_2 c_1_3 c_2_4))
(assert (distinct c_0_1 c_1_2 c_2_3 c_3_4))
(assert (distinct c_0_0 c_1_1 c_2_2 c_3_3 c_4_4))
(assert (distinct c_1_0 c_2_1 c_3_2 c_4_3))
(assert (distinct c_2_0 c_3_1 c_4_2))
(assert (distinct c_3_0 c_4_1))
(assert (= c_0_0 0))
(assert (= c_0_1 1))
(assert (= c_0_2 2))
(assert (= c_0_3 3))
(assert (= c_0_4 4))
(check-sat)
(get-model)
(exit)
